
Gurobi 11.0.0 (linux64) logging started Thu Jan  2 11:36:43 2025

Set parameter LogFile to value "gurobi.log"
Set parameter InfUnbdInfo to value 1
Gurobi Optimizer version 11.0.0 build v11.0.0rc2 (linux64 - "Ubuntu 22.04.4 LTS")

CPU model: AMD EPYC 7V13 64-Core Processor, instruction set [SSE2|AVX|AVX2]
Thread count: 128 physical cores, 128 logical processors, using up to 32 threads

Optimize a model with 147 rows, 520 columns and 409 nonzeros
Model fingerprint: 0x8c2f055a
Model has 363 quadratic constraints
Model has 56 general constraints
Variable types: 106 continuous, 414 integer (0 binary)
Coefficient statistics:
  Matrix range     [1e+00, 2e+01]
  QMatrix range    [1e+00, 2e+02]
  QLMatrix range   [1e+00, 1e+00]
  Objective range  [1e+00, 1e+00]
  Bounds range     [1e+00, 8e+05]
  RHS range        [1e+00, 8e+05]
  QRHS range       [2e+02, 2e+03]
Using branch priorities (all 0).
Presolve added 137 rows and 77 columns
Presolve time: 0.01s
Presolved: 1239 rows, 1062 columns, 4691 nonzeros
Presolved model has 301 SOS constraint(s)
Presolved model has 104 bilinear constraint(s)
Warning: Model contains variables with very large bounds participating
         in product terms.
         Presolve was not able to compute smaller bounds for these variables.
         Consider bounding these variables or reformulating the model.


Solving non-convex MIQCP

Variable types: 297 continuous, 765 integer (264 binary)

Root relaxation: objective 4.639487e+01, 423 iterations, 0.00 seconds (0.00 work units)

    Nodes    |    Current Node    |     Objective Bounds      |     Work
 Expl Unexpl |  Obj  Depth IntInf | Incumbent    BestBd   Gap | It/Node Time

     0     0   46.39487    0  218          -   46.39487      -     -    0s
     0     0   46.40268    0  192          -   46.40268      -     -    0s
H    0     0                    416966.87189   46.40268   100%     -    0s
     0     0  155.65996    0  307 416966.872  155.65996   100%     -    0s
     0     0  156.52229    0  307 416966.872  156.52229   100%     -    0s
     0     0  170.21034    0  401 416966.872  170.21034   100%     -    0s
     0     0  170.21034    0  401 416966.872  170.21034   100%     -    0s
     0     0  170.44011    0  408 416966.872  170.44011   100%     -    0s
     0     0  175.49461    0  421 416966.872  175.49461   100%     -    0s
     0     0  178.61197    0  417 416966.872  178.61197   100%     -    0s
     0     0  186.37604    0  389 416966.872  186.37604   100%     -    0s
     0     0  231.00234    0  434 416966.872  231.00234   100%     -    0s
     0     0  242.74117    0  461 416966.872  242.74117   100%     -    0s
     0     0  283.39976    0  441 416966.872  283.39976   100%     -    0s
     0     0  442.03403    0  410 416966.872  442.03403   100%     -    0s
H    0     0                    416966.37189  442.03403   100%     -    0s
     0     0  838.87024    0  339 416966.372  838.87024   100%     -    0s
     0     0 1073.43279    0  229 416966.372 1073.43279   100%     -    0s
     0     0 1236.15812    0  341 416966.372 1236.15812   100%     -    0s
     0     0 2610.06809    0  300 416966.372 2610.06809  99.4%     -    0s
     0     0 2610.06809    0  283 416966.372 2610.06809  99.4%     -    0s
     0     0 2610.06809    0  329 416966.372 2610.06809  99.4%     -    0s
     0     0 2610.06809    0  309 416966.372 2610.06809  99.4%     -    0s
     0     0 2610.06809    0  313 416966.372 2610.06809  99.4%     -    0s
     0     0 2610.06809    0  333 416966.372 2610.06809  99.4%     -    0s
     0     0 2610.06809    0  149 416966.372 2610.06809  99.4%     -    0s
     0     0 2610.06809    0  305 416966.372 2610.06809  99.4%     -    0s
     0     0 2610.06809    0  143 416966.372 2610.06809  99.4%     -    1s
H    0     0                    134587.94414 2610.06809  98.1%     -    1s
     0     0 2610.06809    0  156 134587.944 2610.06809  98.1%     -    1s
     0     0 2610.06809    0  132 134587.944 2610.06809  98.1%     -    2s
     0     0 2610.06809    0  132 134587.944 2610.06809  98.1%     -    2s
     0     0 2610.06809    0  190 134587.944 2610.06809  98.1%     -    3s
     0     0 2610.06809    0  187 134587.944 2610.06809  98.1%     -    3s
     0     0 2610.06809    0  192 134587.944 2610.06809  98.1%     -    3s
H    0     0                    128856.44932 2610.06809  98.0%     -    3s
H    0     0                    128797.56250 2610.06809  98.0%     -    3s
     0     0 2610.06809    0  138 128797.562 2610.06809  98.0%     -    4s
     0     0 2610.06809    0  150 128797.562 2610.06809  98.0%     -    4s
     0     0 2610.06809    0  179 128797.562 2610.06809  98.0%     -    4s
H    0     0                    118776.56250 2610.06809  97.8%     -    4s
H    0     0                    115916.56250 2610.06809  97.7%     -    4s
     0     0 2610.06809    0  169 115916.562 2610.06809  97.7%     -    4s
     0     0 2610.06809    0  176 115916.562 2610.06809  97.7%     -    5s
     0     0 2610.06809    0  103 115916.562 2610.06809  97.7%     -    6s
H    0     0                    115916.43750 2610.06809  97.7%     -    7s
     0     2 2610.06809    0   98 115916.437 2610.06809  97.7%     -    7s
H   31    50                    114871.43750 2610.06809  97.7%   132    8s
H   39    50                    109881.43750 2610.06809  97.6%   116    8s
H   94    94                    109575.03236 2610.06809  97.6%   104    8s
H   97    94                    109292.43750 2610.06809  97.6%   103    8s
H  162   132                    108793.03236 2610.06809  97.6%  84.3    9s
   380   265 75734.9281   11  184 108793.032 2610.06809  97.6%  54.9   10s
H  422   265                    108793.03235 2610.06809  97.6%  52.6   10s
H  600   336                    100744.45707 2610.06809  97.4%  47.4   10s
H  865   452                    100320.95707 2610.06809  97.4%  42.3   11s
H 1021   452                    95331.704995 2610.06809  97.3%  41.1   11s
H 1258   554                    94671.579995 2610.06809  97.2%  39.5   11s
  4041  1120 94005.0459   24  110 94671.5800 11057.4234  88.3%  32.3   15s
* 4824  1173              41    94585.780113 13601.4587  85.6%  31.0   15s
* 4826  1173              41    94585.530113 13601.4587  85.6%  31.0   15s
H 6270  1281                    93598.625000 63235.9659  32.4%  29.8   17s
* 6292  1281              43    92561.996241 63235.9659  31.7%  29.8   17s
H 7164  1274                    91945.467613 66670.7998  27.5%  29.3   18s
H 7987  1308                    91735.500000 68571.5071  25.3%  29.0   19s
H 8321  1298                    91725.592613 69289.0082  24.5%  29.0   19s
H 8536  1298                    91725.405113 69289.0082  24.5%  28.9   19s
  8611  1374 infeasible   21      91725.4051 69289.0082  24.5%  28.8   20s
* 9192  1440              44    91021.621241 69544.4864  23.6%  28.5   20s
* 9887  1523              39    90398.875000 73447.3906  18.8%  28.3   21s
 10066  1174 82638.7782   14   49 90398.8750 73447.3906  18.8%  28.2   26s
 10110  1166 infeasible   25      90398.8750 73447.3906  18.8%  28.5   30s
H10131  1113                    90398.437500 73447.3906  18.8%  28.6   30s
 10405  1127 infeasible   38      90398.4375 73447.3906  18.8%  29.5   37s
 10884  1049 infeasible   48      90398.4375 73447.3906  18.8%  29.9   45s
 11303   942 infeasible   44      90398.4375 73447.3906  18.8%  30.9   51s
 13075   494 infeasible   40      90398.4375 73447.3906  18.8%  32.0   57s
 14597   290 infeasible   51      90398.4375 73447.3906  18.8%  33.0   61s
*15412   448              72    90339.625415 73447.3906  18.7%  33.3   62s
 15421   255 infeasible   53      90339.6254 73447.3906  18.7%  33.3   72s
H15424   255                    90325.328495 73447.3906  18.7%  33.3   72s
H15447   255                    88328.145501 73447.3906  16.8%  33.3   72s
H15549   255                    88327.645501 73447.3906  16.8%  33.5   72s
H15867    47                    88327.395501 73447.3906  16.8%  33.9   74s
 15928    36 infeasible   52      88327.3955 73447.3906  16.8%  33.9   75s
*16028    15              52    88258.098418 73447.3906  16.8%  34.0   75s
*16030    15              51    88215.083001 73447.3906  16.7%  34.0   75s
H16074    26                    88200.973418 73447.3906  16.7%  33.9   76s
*16182    15              65    87990.708001 73447.3906  16.5%  33.8   77s

Explored 16280 nodes (556228 simplex iterations) in 77.54 seconds (3.99 work units)
Thread count was 32 (of 128 available processors)

Solution count 10: 87990.7 88201 88215.1 ... 90398.4

Optimal solution found (tolerance 1.00e-04)
Warning: max constraint violation (7.6333e-04) exceeds tolerance
Warning: max general constraint violation (7.6333e-04) exceeds tolerance
Best objective 8.799070800088e+04, best bound 8.799070800088e+04, gap 0.0000%
